#gt3.kmer63.(0.10000).V157.E230.mincyc100.imp
#construct.py -o cyclic-graphs/labmix/imperfect-weights/g3-w10000-k63-imp/ -g 3 -w 10000 -k 63 --mincycles 1 --nreads 5 --readlength 1000 -D labmix --poisson-edge-errors
#kmersize=63
#windowsize=10000
#acyclic=False
#mincycles=1
#distribution=lognormal-44
#ngenomes=3
#nreads=5
#readlength=1000
#outdir=cyclic-graphs/labmix/imperfect-weights/g3-w10000-k63-imp/
#pdf=False
#png=False
#style=default
#poisson_edge_errors=True
#dataset=labmix
#abundances=None
#left_index=None
#right_index=None
#keep_n=False
#unique source is 0, unique sink is 1
#genomes: 896.fasta HXB2.fasta JRCSF.fasta 
# ground truth paths, in the format 'weight node1 node2 node3 ... '
#T 17 0 206 247 411 415 478 501 524 575 620 692 759 765 769 1230 1287 1293 1311 1456 1503 1509 1533 1659 1704 1997 2001 2034 2295 2300 2467 2495 2540 2612 2624 2708 2731 2738 2828 2850 2864 2984 3021 3044 3438 3450 3586 3612 3761 3767 4145 4196 4279 4287 4350 4361 4424 4442 4628 4649 4767 4782 4985 5027 5043 5068 5236 5238 5279 5526 5538 5945 5974 6400 6417 7609 7620 7877 7898 8531 8551 8978 8979 9001 9027 206 247 9430 411 415 9451 9468 478 501 524 575 1 
#T 6 0 9508 9609 9684 9851 9866 9451 9468 501 524 10038 10057 10222 759 765 769 10684 1230 1293 1311 10752 10867 10875 1456 1503 1509 1659 1704 11052 11054 11326 1997 2001 2034 11361 11367 11533 11591 11659 11674 11763 2467 2495 11955 2708 2731 2738 12031 2828 2850 2864 12127 2984 3021 3044 12223 12237 12328 12411 3586 3612 12846 12849 13128 13132 4145 4196 13338 4279 4287 13371 4350 4361 13419 4424 4442 13463 13483 4649 4767 4782 13716 13741 13838 13846 4985 5027 5043 5068 14010 5236 5238 5279 14283 5526 5538 15111 6400 6417 16069 16074 7609 7620 16361 16397 16460 16484 16895 16896 8531 8551 17588 9001 9027 9508 9609 17825 9684 9851 9866 9451 9468 501 524 10038 1 
#T 27 0 17826 17829 17892 18146 9851 9866 9430 411 415 9451 9468 478 501 524 10038 10057 620 692 10222 759 765 1287 1293 1311 10752 18925 10867 10875 1503 1509 1533 11052 11054 19441 11326 1997 2001 11361 11367 19680 11533 11591 2295 2300 11659 11674 19829 11763 2467 2495 2540 19900 2612 2624 11955 2708 2731 12031 2828 2850 12127 2984 3021 12223 12237 20252 12328 12411 3438 3450 12846 12849 3761 3767 13128 13132 13371 4350 4361 13419 13463 13483 4628 4649 4767 13716 13741 21654 13838 13846 5027 5043 14010 5236 5238 5945 5974 15111 6400 6417 23888 16069 16074 16361 16397 24236 16460 16484 7877 7898 16895 16896 17588 8978 8979 17826 17829 25620 17892 18146 1 
# subpath constraints, in the format 'node1 node2 node3 ... '
# 0 subpath constraints for genome
#S 7620 7877 7898 8531 8551 8978 
#S 5279 5526 5538 5945 5974 6400 6417 
#S 8551 8978 8979 9001 9027 206 247 9430 411 415 9451 9468 478 501 524 575 
#S 415 478 501 524 575 620 692 759 765 769 1230 1287 1293 1311 1456 
#S 9468 478 501 524 575 
# 1 subpath constraints for genome
#S 11367 11533 11591 11659 11674 11763 2467 2495 11955 2708 2731 2738 12031 2828 2850 2864 12127 2984 3021 3044 12223 12237 12328 12411 
#S 11591 11659 11674 11763 2467 2495 11955 2708 2731 2738 12031 2828 2850 2864 12127 2984 3021 3044 12223 12237 12328 12411 3586 
#S 5538 15111 6400 6417 16069 
#S 5238 5279 14283 5526 5538 15111 
#S 12223 12237 12328 12411 3586 3612 12846 12849 13128 13132 4145 
# 2 subpath constraints for genome
#S 3767 13128 13132 13371 4350 4361 13419 13463 13483 4628 4649 4767 13716 13741 21654 
#S 16896 17588 8978 8979 17826 17829 25620 17892 18146 1 
#S 2495 2540 19900 2612 2624 11955 2708 2731 12031 2828 2850 12127 2984 3021 12223 12237 20252 12328 12411 3438 3450 12846 
#S 17892 18146 9851 9866 9430 411 415 9451 9468 478 501 524 10038 10057 620 692 10222 759 765 1287 
#S 7898 16895 16896 17588 8978 
230
206 247 32
247 411 17
247 9430 18
411 415 64
415 478 13
415 9451 40
478 501 53
501 524 89
524 575 31
524 10038 30
575 1 18
575 620 14
620 692 46
692 759 17
692 10222 28
759 765 54
765 769 22
765 1287 21
769 1230 19
769 10684 6
1230 1287 13
1230 1293 4
1287 1293 40
1293 1311 61
1311 1456 16
1311 10752 37
1456 1503 24
1503 1509 47
1509 1533 31
1509 1659 7
1533 1659 17
1533 11052 22
1659 1704 15
1704 1997 18
1704 11052 5
1997 2001 51
2001 2034 24
2001 11361 27
2034 2295 19
2034 11361 9
2295 2300 59
2300 2467 18
2300 11659 26
2467 2495 44
2495 2540 43
2495 11955 3
2540 2612 13
2540 19900 26
2612 2624 40
2624 2708 21
2624 11955 31
2708 2731 47
2731 2738 28
2731 12031 24
2738 2828 15
2738 12031 6
2828 2850 39
2850 2864 18
2850 12127 27
2864 2984 8
2864 12127 8
2984 3021 56
3021 3044 27
3021 12223 27
3044 3438 11
3044 12223 6
3438 3450 48
3450 3586 9
3450 12846 28
3586 3612 23
3612 3761 18
3612 12846 6
3761 3767 30
3767 4145 14
3767 13128 22
4145 4196 19
4196 4279 17
4196 13338 4
4279 4287 21
4287 4350 14
4287 13371 5
4350 4361 42
4361 4424 21
4361 13419 32
4424 4442 16
4442 13463 6
4442 4628 14
4628 4649 63
4649 4767 48
4767 4782 25
4767 13716 26
4782 4985 17
4782 13716 5
4985 5027 21
5027 5043 52
5043 5068 16
5043 14010 28
5068 5236 21
5068 14010 2
5236 5238 64
5238 5279 21
5238 5945 29
5279 5526 18
5279 14283 4
5526 5538 19
5538 5945 16
5538 15111 6
5945 5974 47
5974 6400 22
5974 15111 29
6400 6417 45
6417 7609 22
6417 16069 6
6417 23888 23
7609 7620 25
7620 7877 10
7620 16361 6
7877 7898 51
7898 8531 19
7898 16895 24
8531 8551 30
8551 8978 18
8551 17588 8
8978 8979 41
8979 9001 16
8979 17826 25
9001 9027 19
9027 206 16
9027 9508 7
9430 411 45
9451 9468 50
9468 478 32
9468 501 10
9508 9609 13
9609 9684 9
9609 17825 3
9684 9851 12
9851 9866 47
9866 9451 17
9866 9430 34
10038 1 8
10038 10057 39
10057 10222 6
10057 620 22
10222 759 19
10684 1230 2
10752 10867 12
10752 18925 29
10867 10875 35
10875 1456 6
10875 1503 24
11052 11054 32
11054 11326 5
11054 19441 46
11326 1997 37
11361 11367 33
11367 11533 5
11367 19680 35
11533 11591 24
11591 2295 34
11591 11659 6
11659 11674 31
11674 11763 3
11674 19829 27
11763 2467 34
11955 2708 35
12031 2828 35
12127 2984 28
12223 12237 44
12237 12328 9
12237 20252 25
12328 12411 29
12411 3586 7
12411 3438 28
12846 12849 35
12849 13128 7
12849 3761 26
13128 13132 28
13132 4145 7
13132 13371 26
13338 4279 7
13371 4350 38
13419 4424 7
13419 13463 26
13463 13483 30
13483 4649 6
13483 4628 29
13716 13741 44
13741 13838 5
13741 21654 24
13838 13846 40
13846 4985 10
13846 5027 21
14010 5236 24
14283 5526 1
15111 6400 33
16069 16074 35
16074 7609 4
16074 16361 27
16361 16397 32
16397 16460 5
16397 24236 22
16460 16484 38
16484 16895 7
16484 7877 21
16895 16896 32
16896 8531 3
16896 17588 22
17588 9001 6
17588 8978 23
17825 9684 7
17826 17829 51
17829 17892 29
17829 25620 29
17892 18146 53
18146 9851 26
18146 1 41
18925 10867 18
19441 11326 29
19680 11533 29
19829 11763 30
19900 2612 19
20252 12328 28
21654 13838 29
23888 16069 26
24236 16460 22
25620 17892 30
0 9508 5
0 17826 30
0 206 12