#gt2.kmer63.(0.10000).V85.E115.mincyc100.imp
#construct.py -o cyclic-graphs/labmix/imperfect-weights/g2-w10000-k63-imp/ -g 2 -w 10000 -k 63 --mincycles 1 --nreads 5 --readlength 1000 -D labmix --poisson-edge-errors
#kmersize=63
#windowsize=10000
#acyclic=False
#mincycles=1
#distribution=lognormal-44
#ngenomes=2
#nreads=5
#readlength=1000
#outdir=cyclic-graphs/labmix/imperfect-weights/g2-w10000-k63-imp/
#pdf=False
#png=False
#style=default
#poisson_edge_errors=True
#dataset=labmix
#abundances=None
#left_index=None
#right_index=None
#keep_n=False
#unique source is 0, unique sink is 1
#genomes: 896.fasta HXB2.fasta 
# ground truth paths, in the format 'weight node1 node2 node3 ... '
#T 17 0 206 247 411 415 478 501 524 575 759 769 1230 1293 1311 1456 1509 1659 1704 1997 2034 2467 2495 2708 2738 2828 2864 2984 3044 3586 3612 4145 4196 4279 4287 4350 4361 4424 4442 4649 4782 4985 5068 5236 5279 5526 5538 6400 6417 7609 7620 8531 8551 9001 9027 206 247 9445 411 415 9451 9468 478 501 524 575 1 
#T 6 0 9508 9609 9684 9451 9468 501 524 10038 759 769 10684 1230 10746 1293 1311 10890 1456 1509 11039 1659 1704 11331 1997 2034 11763 2467 2495 11975 2708 2738 12064 2828 2864 12183 2984 3044 12724 3586 3612 13256 4145 4196 13338 4279 4287 13400 4350 4361 13462 4424 4442 13668 4649 4782 13870 4985 5068 14037 5236 5279 14283 5526 5538 15148 6400 6417 16345 7609 7620 17255 8531 8551 17701 9001 9027 9508 9609 17825 9684 9451 9468 501 524 10038 1 
# subpath constraints, in the format 'node1 node2 node3 ... '
# 0 subpath constraints for genome
#S 1509 1659 1704 1997 2034 2467 2495 2708 
#S 8551 9001 9027 206 247 9445 411 415 9451 9468 478 501 524 575 
#S 2034 2467 2495 2708 2738 2828 2864 2984 3044 3586 
#S 5279 5526 5538 6400 6417 7609 
#S 5538 6400 6417 7609 
# 1 subpath constraints for genome
#S 769 10684 1230 10746 1293 1311 10890 1456 1509 11039 1659 1704 11331 1997 2034 11763 
#S 5538 15148 6400 6417 16345 
#S 5538 15148 6400 6417 16345 
#S 2034 11763 2467 2495 11975 2708 2738 12064 2828 2864 12183 2984 3044 12724 
#S 7620 17255 8531 8551 17701 9001 9027 9508 
115
206 247 34
247 411 14
247 9445 10
411 415 42
415 478 16
415 9451 15
478 501 40
501 524 44
524 575 29
524 10038 10
575 1 24
575 759 18
759 769 24
769 1230 23
769 10684 8
1230 1293 19
1230 10746 6
1293 1311 17
1311 1456 15
1311 10890 4
1456 1509 20
1509 1659 15
1509 11039 5
1659 1704 28
1704 1997 18
1704 11331 5
1997 2034 15
2034 2467 23
2034 11763 6
2467 2495 24
2495 2708 12
2495 11975 9
2708 2738 28
2738 2828 22
2738 12064 6
2828 2864 11
2864 2984 23
2864 12183 9
2984 3044 16
3044 3586 8
3044 12724 6
3586 3612 24
3612 4145 19
3612 13256 5
4145 4196 25
4196 4279 6
4196 13338 3
4279 4287 19
4287 4350 10
4287 13400 3
4350 4361 22
4361 4424 17
4361 13462 5
4424 4442 22
4442 4649 19
4442 13668 6
4649 4782 26
4782 4985 7
4782 13870 6
4985 5068 31
5068 5236 21
5068 14037 3
5236 5279 23
5279 5526 23
5279 14283 3
5526 5538 24
5538 6400 16
5538 15148 6
6400 6417 24
6417 7609 12
6417 16345 8
7609 7620 27
7620 8531 13
7620 17255 7
8531 8551 21
8551 9001 13
8551 17701 10
9001 9027 25
9027 206 14
9027 9508 7
9445 411 19
9451 9468 31
9468 478 15
9468 501 15
9508 9609 9
9609 9684 12
9609 17825 4
9684 9451 9
10038 1 7
10038 759 4
10684 1230 8
10746 1293 6
10890 1456 11
11039 1659 5
11331 1997 5
11763 2467 5
11975 2708 1
12064 2828 10
12183 2984 7
12724 3586 5
13256 4145 5
13338 4279 7
13400 4350 9
13462 4424 3
13668 4649 4
13870 4985 13
14037 5236 4
14283 5526 3
15148 6400 4
16345 7609 7
17255 8531 3
17701 9001 9
17825 9684 9
0 9508 11
0 206 15